&CONTROL
  calculation  = "scf",
  prefix       = "Si",
  pseudo_dir   = ".",
  outdir       = "./out",
  restart_mode = "from_scratch"
  verbosity    = 'high'
/
&SYSTEM
  ibrav     = 2,
  celldm(1) = 10.2,
  nat       = 2,
  ntyp      = 1,
  nbnd      = 10
  ecutwfc   = 50
/
&ELECTRONS
  conv_thr    = 1.D-8,
  mixing_beta = 0.7D0,
/
ATOMIC_SPECIES
 Si  28.086  Si.pbe-n-kjpaw_psl.1.0.0.UPF
ATOMIC_POSITIONS
 Si 0.00 0.00 0.00
 Si 0.25 0.25 0.25
K_POINTS {{automatic}}
 15 15 15   0 0 0
